(set-info :smt-lib-version 2.6)
(set-logic QF_LRA)
(set-info :source |
TLP-GP automated DTP to SMT-LIB encoding for planning
by F.Maris and P.Regnier, IRIT - Universite Paul Sabatier, Toulouse

|)
(set-info :category "industrial")
(set-info :status sat)
(declare-fun St_spy_variable () Real)
(declare-fun t_Init_0 () Real)
(declare-fun t_Goal_25 () Real)
(declare-fun t_C_N7_21 () Real)
(declare-fun t_B_N7_20 () Real)
(declare-fun t_C_N6_18 () Real)
(declare-fun t_B_N6_17 () Real)
(declare-fun t_C_N5_15 () Real)
(declare-fun t_B_N5_14 () Real)
(declare-fun t_C_N4_12 () Real)
(declare-fun t_B_N4_11 () Real)
(declare-fun t_C_N3_9 () Real)
(declare-fun t_B_N3_8 () Real)
(declare-fun t_C_N2_6 () Real)
(declare-fun t_B_N2_5 () Real)
(declare-fun t_C_N1_3 () Real)
(declare-fun t_B_N1_2 () Real)
(declare-fun t_A_N1_1 () Real)
(declare-fun t_A_N2_4 () Real)
(declare-fun t_A_N3_7 () Real)
(declare-fun t_A_N4_10 () Real)
(declare-fun t_A_N5_13 () Real)
(declare-fun t_A_N6_16 () Real)
(declare-fun t_A_N7_19 () Real)
(declare-fun t_A_N8_22 () Real)
(declare-fun t_B_N8_23 () Real)
(declare-fun t_C_N8_24 () Real)
(assert (let ((?v_20 (- t_Goal_25 t_C_N7_21)) (?v_19 (- t_Goal_25 t_B_N7_20)) (?v_17 (- t_Goal_25 t_C_N6_18)) (?v_16 (- t_Goal_25 t_B_N6_17)) (?v_14 (- t_Goal_25 t_C_N5_15)) (?v_13 (- t_Goal_25 t_B_N5_14)) (?v_11 (- t_Goal_25 t_C_N4_12)) (?v_10 (- t_Goal_25 t_B_N4_11)) (?v_8 (- t_Goal_25 t_C_N3_9)) (?v_7 (- t_Goal_25 t_B_N3_8)) (?v_5 (- t_Goal_25 t_C_N2_6)) (?v_4 (- t_Goal_25 t_B_N2_5)) (?v_2 (- t_Goal_25 t_C_N1_3)) (?v_1 (- t_Goal_25 t_B_N1_2)) (?v_0 (- t_Goal_25 t_A_N1_1)) (?v_3 (- t_Goal_25 t_A_N2_4)) (?v_6 (- t_Goal_25 t_A_N3_7)) (?v_9 (- t_Goal_25 t_A_N4_10)) (?v_12 (- t_Goal_25 t_A_N5_13)) (?v_15 (- t_Goal_25 t_A_N6_16)) (?v_18 (- t_Goal_25 t_A_N7_19)) (?v_21 (- t_Goal_25 t_A_N8_22)) (?v_22 (- t_Goal_25 t_B_N8_23)) (?v_55 (- t_Goal_25 t_C_N8_24)) (?v_50 (- t_B_N1_2 t_A_N1_1))) (let ((?v_49 (< ?v_50 5)) (?v_48 (- t_C_N1_3 t_B_N1_2))) (let ((?v_47 (< ?v_48 4)) (?v_46 (- t_B_N2_5 t_A_N2_4))) (let ((?v_45 (< ?v_46 5)) (?v_44 (- t_C_N2_6 t_B_N2_5))) (let ((?v_43 (< ?v_44 4)) (?v_42 (- t_B_N3_8 t_A_N3_7))) (let ((?v_41 (< ?v_42 5)) (?v_40 (- t_C_N3_9 t_B_N3_8))) (let ((?v_39 (< ?v_40 4)) (?v_38 (- t_B_N4_11 t_A_N4_10))) (let ((?v_37 (< ?v_38 5)) (?v_36 (- t_C_N4_12 t_B_N4_11))) (let ((?v_35 (< ?v_36 4)) (?v_34 (- t_B_N5_14 t_A_N5_13))) (let ((?v_33 (< ?v_34 5)) (?v_32 (- t_C_N5_15 t_B_N5_14))) (let ((?v_31 (< ?v_32 4)) (?v_30 (- t_B_N6_17 t_A_N6_16))) (let ((?v_29 (< ?v_30 5)) (?v_28 (- t_C_N6_18 t_B_N6_17))) (let ((?v_27 (< ?v_28 4)) (?v_26 (- t_B_N7_20 t_A_N7_19))) (let ((?v_25 (< ?v_26 5)) (?v_24 (- t_C_N7_21 t_B_N7_20))) (let ((?v_23 (< ?v_24 4)) (?v_52 (- t_B_N8_23 t_A_N8_22))) (let ((?v_51 (< ?v_52 5)) (?v_54 (- t_C_N8_24 t_B_N8_23))) (let ((?v_53 (< ?v_54 4)) (?v_89 (- t_A_N8_22 t_C_N7_21)) (?v_84 (- t_A_N7_19 t_C_N6_18)) (?v_79 (- t_A_N6_16 t_C_N5_15)) (?v_74 (- t_A_N5_13 t_C_N4_12)) (?v_69 (- t_A_N4_10 t_C_N3_9)) (?v_64 (- t_A_N3_7 t_C_N2_6)) (?v_59 (- t_A_N2_4 t_C_N1_3)) (?v_56 (- t_A_N2_4 t_A_N1_1)) (?v_61 (- t_A_N3_7 t_A_N2_4)) (?v_66 (- t_A_N4_10 t_A_N3_7)) (?v_71 (- t_A_N5_13 t_A_N4_10)) (?v_76 (- t_A_N6_16 t_A_N5_13)) (?v_81 (- t_A_N7_19 t_A_N6_16)) (?v_86 (- t_A_N8_22 t_A_N7_19))) (let ((?v_113 (< ?v_56 5)) (?v_57 (> ?v_50 1))) (let ((?v_112 (or ?v_113 ?v_57)) (?v_58 (< ?v_0 6)) (?v_60 (< (- t_C_N1_3 t_A_N1_1) 4))) (let ((?v_111 (or (< ?v_59 1) ?v_60)) (?v_110 (< ?v_61 5)) (?v_62 (> ?v_46 1))) (let ((?v_109 (or ?v_110 ?v_62)) (?v_63 (< ?v_3 6)) (?v_65 (< (- t_C_N2_6 t_A_N2_4) 4))) (let ((?v_108 (or (< ?v_64 1) ?v_65)) (?v_107 (< ?v_66 5)) (?v_67 (> ?v_42 1))) (let ((?v_106 (or ?v_107 ?v_67)) (?v_68 (< ?v_6 6)) (?v_70 (< (- t_C_N3_9 t_A_N3_7) 4))) (let ((?v_105 (or (< ?v_69 1) ?v_70)) (?v_104 (< ?v_71 5)) (?v_72 (> ?v_38 1))) (let ((?v_103 (or ?v_104 ?v_72)) (?v_73 (< ?v_9 6)) (?v_75 (< (- t_C_N4_12 t_A_N4_10) 4))) (let ((?v_102 (or (< ?v_74 1) ?v_75)) (?v_101 (< ?v_76 5)) (?v_77 (> ?v_34 1))) (let ((?v_100 (or ?v_101 ?v_77)) (?v_78 (< ?v_12 6)) (?v_80 (< (- t_C_N5_15 t_A_N5_13) 4))) (let ((?v_99 (or (< ?v_79 1) ?v_80)) (?v_98 (< ?v_81 5)) (?v_82 (> ?v_30 1))) (let ((?v_97 (or ?v_98 ?v_82)) (?v_83 (< ?v_15 6)) (?v_85 (< (- t_C_N6_18 t_A_N6_16) 4))) (let ((?v_96 (or (< ?v_84 1) ?v_85)) (?v_95 (< ?v_86 5)) (?v_87 (> ?v_26 1))) (let ((?v_94 (or ?v_95 ?v_87)) (?v_88 (< ?v_18 6)) (?v_90 (< (- t_C_N7_21 t_A_N7_19) 4))) (let ((?v_93 (or (< ?v_89 1) ?v_90)) (?v_91 (> ?v_52 1))) (let ((?v_114 (or (< ?v_52 1) ?v_91)) (?v_92 (< ?v_21 6)) (?v_116 (- t_C_N8_24 t_A_N8_22))) (let ((?v_115 (< ?v_116 4))) (and (= St_spy_variable (+ 1 t_Init_0)) (>= t_Goal_25 t_Init_0) (>= (- t_C_N7_21 t_Init_0) 0) (>= ?v_20 1) (>= (- t_B_N7_20 t_Init_0) 0) (>= ?v_19 4) (>= (- t_C_N6_18 t_Init_0) 0) (>= ?v_17 1) (>= (- t_B_N6_17 t_Init_0) 0) (>= ?v_16 4) (>= (- t_C_N5_15 t_Init_0) 0) (>= ?v_14 1) (>= (- t_B_N5_14 t_Init_0) 0) (>= ?v_13 4) (>= (- t_C_N4_12 t_Init_0) 0) (>= ?v_11 1) (>= (- t_B_N4_11 t_Init_0) 0) (>= ?v_10 4) (>= (- t_C_N3_9 t_Init_0) 0) (>= ?v_8 1) (>= (- t_B_N3_8 t_Init_0) 0) (>= ?v_7 4) (>= (- t_C_N2_6 t_Init_0) 0) (>= ?v_5 1) (>= (- t_B_N2_5 t_Init_0) 0) (>= ?v_4 4) (>= (- t_C_N1_3 t_Init_0) 0) (>= ?v_2 1) (>= (- t_B_N1_2 t_Init_0) 0) (>= ?v_1 4) (>= (- t_A_N1_1 t_Init_0) 0) (>= ?v_0 5) (>= (- t_A_N2_4 t_Init_0) 0) (>= ?v_3 5) (>= (- t_A_N3_7 t_Init_0) 0) (>= ?v_6 5) (>= (- t_A_N4_10 t_Init_0) 0) (>= ?v_9 5) (>= (- t_A_N5_13 t_Init_0) 0) (>= ?v_12 5) (>= (- t_A_N6_16 t_Init_0) 0) (>= ?v_15 5) (>= (- t_A_N7_19 t_Init_0) 0) (>= ?v_18 5) (>= (- t_A_N8_22 t_Init_0) 0) (>= ?v_21 5) (>= (- t_B_N8_23 t_Init_0) 0) (>= ?v_22 4) (>= (- t_C_N8_24 t_Init_0) 0) (>= ?v_55 1) ?v_49 (>= ?v_0 6) ?v_47 (>= ?v_1 5) (>= ?v_2 2) ?v_45 (>= ?v_3 6) ?v_43 (>= ?v_4 5) (>= ?v_5 2) ?v_41 (>= ?v_6 6) ?v_39 (>= ?v_7 5) (>= ?v_8 2) ?v_37 (>= ?v_9 6) ?v_35 (>= ?v_10 5) (>= ?v_11 2) ?v_33 (>= ?v_12 6) ?v_31 (>= ?v_13 5) (>= ?v_14 2) ?v_29 (>= ?v_15 6) ?v_27 (>= ?v_16 5) (>= ?v_17 2) ?v_25 (>= ?v_18 6) ?v_23 (>= ?v_19 5) (>= ?v_20 2) ?v_51 (>= ?v_21 6) ?v_53 (>= ?v_22 5) ?v_23 ?v_23 (>= ?v_24 0) (>= ?v_89 1) ?v_25 ?v_25 (>= ?v_26 0) (>= (- t_A_N8_22 t_B_N7_20) 4) ?v_27 ?v_27 (>= ?v_28 0) (>= ?v_84 1) ?v_29 ?v_29 (>= ?v_30 0) (>= (- t_A_N7_19 t_B_N6_17) 4) ?v_31 ?v_31 (>= ?v_32 0) (>= ?v_79 1) ?v_33 ?v_33 (>= ?v_34 0) (>= (- t_A_N6_16 t_B_N5_14) 4) ?v_35 ?v_35 (>= ?v_36 0) (>= ?v_74 1) ?v_37 ?v_37 (>= ?v_38 0) (>= (- t_A_N5_13 t_B_N4_11) 4) ?v_39 ?v_39 (>= ?v_40 0) (>= ?v_69 1) ?v_41 ?v_41 (>= ?v_42 0) (>= (- t_A_N4_10 t_B_N3_8) 4) ?v_43 ?v_43 (>= ?v_44 0) (>= ?v_64 1) ?v_45 ?v_45 (>= ?v_46 0) (>= (- t_A_N3_7 t_B_N2_5) 4) ?v_47 ?v_47 (>= ?v_48 0) (>= ?v_59 1) ?v_49 ?v_49 (>= ?v_50 0) (>= (- t_A_N2_4 t_B_N1_2) 4) (>= ?v_56 5) (>= ?v_61 5) (>= ?v_66 5) (>= ?v_71 5) (>= ?v_76 5) (>= ?v_81 5) (>= ?v_86 5) ?v_51 (>= ?v_52 0) ?v_53 (>= ?v_54 0) (>= ?v_55 2) ?v_112 (or ?v_58 ?v_57) (or ?v_60 (< ?v_2 2)) (or ?v_57 ?v_58) ?v_111 ?v_109 (or ?v_63 ?v_62) (or ?v_65 (< ?v_5 2)) (or ?v_62 ?v_63) ?v_108 ?v_106 (or ?v_68 ?v_67) (or ?v_70 (< ?v_8 2)) (or ?v_67 ?v_68) ?v_105 ?v_103 (or ?v_73 ?v_72) (or ?v_75 (< ?v_11 2)) (or ?v_72 ?v_73) ?v_102 ?v_100 (or ?v_78 ?v_77) (or ?v_80 (< ?v_14 2)) (or ?v_77 ?v_78) ?v_99 ?v_97 (or ?v_83 ?v_82) (or ?v_85 (< ?v_17 2)) (or ?v_82 ?v_83) ?v_96 ?v_94 (or ?v_88 ?v_87) (or ?v_90 (< ?v_20 2)) (or ?v_87 ?v_88) ?v_93 ?v_114 (or ?v_92 ?v_91) (or ?v_115 (< ?v_55 2)) (or ?v_91 ?v_92) (or ?v_87 (< ?v_26 1)) ?v_93 ?v_94 (or ?v_87 ?v_95) (or ?v_82 (< ?v_30 1)) ?v_96 ?v_97 (or ?v_82 ?v_98) (or ?v_77 (< ?v_34 1)) ?v_99 ?v_100 (or ?v_77 ?v_101) (or ?v_72 (< ?v_38 1)) ?v_102 ?v_103 (or ?v_72 ?v_104) (or ?v_67 (< ?v_42 1)) ?v_105 ?v_106 (or ?v_67 ?v_107) (or ?v_62 (< ?v_46 1)) ?v_108 ?v_109 (or ?v_62 ?v_110) (or ?v_57 (< ?v_50 1)) ?v_111 ?v_112 (or ?v_57 ?v_113) ?v_114 (or ?v_115 (> ?v_116 4))))))))))))))))))))))))))))))))))))))
(check-sat)
(exit)
